; PUSH cw_5 SLOAD PUSH cw_4 SWAP2 PUSH cw_3 SWAP2 => PUSH cw_3 PUSH cw_4 SWAP2 PUSH cw_5 SLOAD
(set-option :produce-proofs true)
; 
(set-info :status unknown)
(declare-fun storage_t ((_ BitVec 256) (_ BitVec 256) (_ BitVec 256) (_ BitVec 256) (_ BitVec 256) Int (_ BitVec 256)) (_ BitVec 256))
(declare-fun w_3 () (_ BitVec 256))
(declare-fun w_4 () (_ BitVec 256))
(declare-fun w_5 () (_ BitVec 256))
(declare-fun storage_s ((_ BitVec 256) (_ BitVec 256) (_ BitVec 256) (_ BitVec 256) (_ BitVec 256) Int (_ BitVec 256)) (_ BitVec 256))
(declare-fun exc_halt_t (Int) Bool)
(declare-fun exc_halt_s (Int) Bool)
(declare-fun stack_t ((_ BitVec 256) (_ BitVec 256) (_ BitVec 256) (_ BitVec 256) (_ BitVec 256) Int (_ BitVec 6)) (_ BitVec 256))
(declare-fun stack_s ((_ BitVec 256) (_ BitVec 256) (_ BitVec 256) (_ BitVec 256) (_ BitVec 256) Int (_ BitVec 6)) (_ BitVec 256))
(declare-fun sc_t (Int) (_ BitVec 6))
(declare-fun sc_s (Int) (_ BitVec 6))
(declare-fun used_gas_t ((_ BitVec 256) (_ BitVec 256) (_ BitVec 256) (_ BitVec 256) (_ BitVec 256) Int) Int)
(declare-fun used_gas_s ((_ BitVec 256) (_ BitVec 256) (_ BitVec 256) (_ BitVec 256) (_ BitVec 256) Int) Int)
(assert
 (exists ((x_0 (_ BitVec 256)) (x_SLOAD_0 (_ BitVec 256)) )(let (($x6707 (forall ((w (_ BitVec 256)) )(let ((?x3581 (storage_t x_0 x_SLOAD_0 w_5 w_4 w_3 5 w)))
 (let ((?x5364 (storage_s x_0 x_SLOAD_0 w_5 w_4 w_3 6 w)))
 (= ?x5364 ?x3581))))
 ))
 (let (($x886 (exc_halt_t 5)))
 (let (($x772 (exc_halt_s 6)))
 (let (($x889 (= $x772 $x886)))
 (let (($x5766 (forall ((n (_ BitVec 6)) )(let ((?x797 (stack_t x_0 x_SLOAD_0 w_5 w_4 w_3 5 n)))
 (let ((?x3677 (stack_s x_0 x_SLOAD_0 w_5 w_4 w_3 6 n)))
 (let (($x4267 (= ?x3677 ?x797)))
 (let ((?x919 (sc_t 5)))
 (let (($x1126 (bvsle ?x919 n)))
 (or $x1126 $x4267)))))))
 ))
 (let ((?x919 (sc_t 5)))
 (let ((?x926 (sc_s 6)))
 (let (($x929 (= ?x926 ?x919)))
 (let ((?x10269 (used_gas_t x_0 x_SLOAD_0 w_5 w_4 w_3 0)))
 (let ((?x6200 (used_gas_s x_0 x_SLOAD_0 w_5 w_4 w_3 0)))
 (let (($x326 (= ?x6200 ?x10269)))
 (let (($x4298 (forall ((w (_ BitVec 256)) )(let ((?x8459 (storage_t x_0 x_SLOAD_0 w_5 w_4 w_3 0 w)))
 (let ((?x9755 (storage_s x_0 x_SLOAD_0 w_5 w_4 w_3 0 w)))
 (= ?x9755 ?x8459))))
 ))
 (let (($x56 (exc_halt_t 0)))
 (let (($x57 (exc_halt_s 0)))
 (let (($x58 (= $x57 $x56)))
 (let (($x66 (forall ((n (_ BitVec 6)) )(let ((?x63 (sc_t 0)))
 (let (($x9173 (bvsle ?x63 n)))
 (let ((?x190 (stack_t x_0 x_SLOAD_0 w_5 w_4 w_3 0 n)))
 (let ((?x6442 (stack_s x_0 x_SLOAD_0 w_5 w_4 w_3 0 n)))
 (let (($x8905 (= ?x6442 ?x190)))
 (or $x8905 $x9173)))))))
 ))
 (let ((?x63 (sc_t 0)))
 (let ((?x72 (sc_s 0)))
 (let (($x73 (= ?x72 ?x63)))
 (let (($x8270 (= $x886 (or (exc_halt_t 4) (not (bvsle (_ bv0 6) (bvadd (_ bv63 6) (sc_t 4))))))))
 (let (($x3236 (forall ((w (_ BitVec 256)) )(let ((?x5341 (storage_t x_0 x_SLOAD_0 w_5 w_4 w_3 4 w)))
 (let ((?x3581 (storage_t x_0 x_SLOAD_0 w_5 w_4 w_3 5 w)))
 (= ?x3581 ?x5341))))
 ))
 (let (($x5501 (forall ((n (_ BitVec 6)) )(let ((?x2522 (stack_t x_0 x_SLOAD_0 w_5 w_4 w_3 4 n)))
 (let ((?x797 (stack_t x_0 x_SLOAD_0 w_5 w_4 w_3 5 n)))
 (or (= ?x797 ?x2522) (bvsle (bvadd (_ bv63 6) (sc_t 4)) n)))))
 ))
 (let ((?x3757 (sc_t 4)))
 (let (($x1123 (= ?x919 ?x3757)))
 (let (($x11598 (= (used_gas_t x_0 x_SLOAD_0 w_5 w_4 w_3 5) (+ 200 (used_gas_t x_0 x_SLOAD_0 w_5 w_4 w_3 4)))))
 (let ((?x10471 (storage_t x_0 x_SLOAD_0 w_5 w_4 w_3 4 (stack_t x_0 x_SLOAD_0 w_5 w_4 w_3 4 (bvadd (_ bv63 6) ?x3757)))))
 (let (($x7456 (= (stack_t x_0 x_SLOAD_0 w_5 w_4 w_3 5 (bvadd (_ bv63 6) ?x919)) ?x10471)))
 (let (($x11122 (not (= ((_ extract 6 6) (bvadd (_ bv1 7) (concat (_ bv0 1) (sc_t 3)))) (_ bv0 1)))))
 (let (($x2075 (exc_halt_t 3)))
 (let (($x3723 (exc_halt_t 4)))
 (let (($x6433 (forall ((w (_ BitVec 256)) )(let ((?x1903 (storage_t x_0 x_SLOAD_0 w_5 w_4 w_3 3 w)))
 (let ((?x5341 (storage_t x_0 x_SLOAD_0 w_5 w_4 w_3 4 w)))
 (= ?x5341 ?x1903))))
 ))
 (let (($x3025 (forall ((n (_ BitVec 6)) )(let ((?x5512 (sc_t 3)))
 (let (($x10734 (bvsle ?x5512 n)))
 (let ((?x8890 (stack_t x_0 x_SLOAD_0 w_5 w_4 w_3 3 n)))
 (let ((?x2522 (stack_t x_0 x_SLOAD_0 w_5 w_4 w_3 4 n)))
 (or (= ?x2522 ?x8890) $x10734))))))
 ))
 (let (($x11094 (= ?x3757 (bvadd (_ bv1 6) (sc_t 3)))))
 (let ((?x6070 (used_gas_t x_0 x_SLOAD_0 w_5 w_4 w_3 4)))
 (let (($x3631 (= $x2075 (or (exc_halt_t 2) (not (bvsle (_ bv0 6) (bvadd (_ bv61 6) (sc_t 2))))))))
 (let (($x1692 (forall ((w (_ BitVec 256)) )(let ((?x193 (storage_t x_0 x_SLOAD_0 w_5 w_4 w_3 2 w)))
 (let ((?x1903 (storage_t x_0 x_SLOAD_0 w_5 w_4 w_3 3 w)))
 (= ?x1903 ?x193))))
 ))
 (let (($x10259 (forall ((n (_ BitVec 6)) )(let ((?x6629 (sc_t 2)))
 (let ((?x2223 (bvadd (_ bv61 6) ?x6629)))
 (let (($x10324 (bvsle ?x2223 n)))
 (let ((?x10473 (stack_t x_0 x_SLOAD_0 w_5 w_4 w_3 2 n)))
 (let ((?x8890 (stack_t x_0 x_SLOAD_0 w_5 w_4 w_3 3 n)))
 (or (= ?x8890 ?x10473) $x10324)))))))
 ))
 (let ((?x6629 (sc_t 2)))
 (let ((?x5512 (sc_t 3)))
 (let (($x10315 (= ?x5512 ?x6629)))
 (let ((?x8605 (used_gas_t x_0 x_SLOAD_0 w_5 w_4 w_3 3)))
 (let (($x9339 (= (stack_t x_0 x_SLOAD_0 w_5 w_4 w_3 3 (bvadd (_ bv62 6) ?x5512)) (stack_t x_0 x_SLOAD_0 w_5 w_4 w_3 2 (bvadd (_ bv62 6) ?x6629)))))
 (let (($x2725 (= (stack_t x_0 x_SLOAD_0 w_5 w_4 w_3 3 (bvadd (_ bv61 6) ?x5512)) (stack_t x_0 x_SLOAD_0 w_5 w_4 w_3 2 (bvadd (_ bv63 6) ?x6629)))))
 (let (($x7700 (= (stack_t x_0 x_SLOAD_0 w_5 w_4 w_3 3 (bvadd (_ bv63 6) ?x5512)) (stack_t x_0 x_SLOAD_0 w_5 w_4 w_3 2 (bvadd (_ bv61 6) ?x6629)))))
 (let (($x11356 (not (= ((_ extract 6 6) (bvadd (_ bv1 7) (concat (_ bv0 1) (sc_t 1)))) (_ bv0 1)))))
 (let (($x7802 (exc_halt_t 1)))
 (let (($x2810 (exc_halt_t 2)))
 (let (($x1219 (forall ((w (_ BitVec 256)) )(let ((?x4847 (storage_t x_0 x_SLOAD_0 w_5 w_4 w_3 1 w)))
 (let ((?x193 (storage_t x_0 x_SLOAD_0 w_5 w_4 w_3 2 w)))
 (= ?x193 ?x4847))))
 ))
 (let (($x7430 (forall ((n (_ BitVec 6)) )(let ((?x9052 (stack_t x_0 x_SLOAD_0 w_5 w_4 w_3 1 n)))
 (let ((?x10473 (stack_t x_0 x_SLOAD_0 w_5 w_4 w_3 2 n)))
 (or (bvsle (sc_t 1) n) (= ?x10473 ?x9052)))))
 ))
 (let (($x8931 (= ?x6629 (bvadd (_ bv1 6) (sc_t 1)))))
 (let ((?x1461 (used_gas_t x_0 x_SLOAD_0 w_5 w_4 w_3 2)))
 (let (($x6221 (= $x7802 (or $x56 (not (= ((_ extract 6 6) (bvadd (_ bv1 7) (concat (_ bv0 1) ?x63))) (_ bv0 1)))))))
 (let (($x2714 (forall ((w (_ BitVec 256)) )(let ((?x8459 (storage_t x_0 x_SLOAD_0 w_5 w_4 w_3 0 w)))
 (let ((?x4847 (storage_t x_0 x_SLOAD_0 w_5 w_4 w_3 1 w)))
 (= ?x4847 ?x8459))))
 ))
 (let (($x8775 (forall ((n (_ BitVec 6)) )(let ((?x63 (sc_t 0)))
 (let (($x9173 (bvsle ?x63 n)))
 (let ((?x190 (stack_t x_0 x_SLOAD_0 w_5 w_4 w_3 0 n)))
 (let ((?x9052 (stack_t x_0 x_SLOAD_0 w_5 w_4 w_3 1 n)))
 (or (= ?x9052 ?x190) $x9173))))))
 ))
 (let ((?x11292 (sc_t 1)))
 (let (($x11743 (= ?x11292 (bvadd (_ bv1 6) ?x63))))
 (let (($x7463 (= $x772 (or (exc_halt_s 5) (not (bvsle (_ bv0 6) (bvadd (_ bv61 6) (sc_s 5))))))))
 (let (($x4107 (forall ((w (_ BitVec 256)) )(let ((?x6240 (storage_s x_0 x_SLOAD_0 w_5 w_4 w_3 5 w)))
 (let ((?x5364 (storage_s x_0 x_SLOAD_0 w_5 w_4 w_3 6 w)))
 (= ?x5364 ?x6240))))
 ))
 (let (($x9328 (forall ((n (_ BitVec 6)) )(let ((?x7374 (stack_s x_0 x_SLOAD_0 w_5 w_4 w_3 5 n)))
 (let ((?x3677 (stack_s x_0 x_SLOAD_0 w_5 w_4 w_3 6 n)))
 (or (= ?x3677 ?x7374) (bvsle (bvadd (_ bv61 6) (sc_s 5)) n)))))
 ))
 (let ((?x805 (sc_s 5)))
 (let (($x932 (= ?x926 ?x805)))
 (let (($x4653 (= (used_gas_s x_0 x_SLOAD_0 w_5 w_4 w_3 6) (+ 3 (used_gas_s x_0 x_SLOAD_0 w_5 w_4 w_3 5)))))
 (let (($x2479 (= (stack_s x_0 x_SLOAD_0 w_5 w_4 w_3 6 (bvadd (_ bv62 6) ?x926)) (stack_s x_0 x_SLOAD_0 w_5 w_4 w_3 5 (bvadd (_ bv62 6) ?x805)))))
 (let (($x5703 (= (stack_s x_0 x_SLOAD_0 w_5 w_4 w_3 6 (bvadd (_ bv61 6) ?x926)) (stack_s x_0 x_SLOAD_0 w_5 w_4 w_3 5 (bvadd (_ bv63 6) ?x805)))))
 (let (($x11270 (= (stack_s x_0 x_SLOAD_0 w_5 w_4 w_3 6 (bvadd (_ bv63 6) ?x926)) (stack_s x_0 x_SLOAD_0 w_5 w_4 w_3 5 (bvadd (_ bv61 6) ?x805)))))
 (let (($x11568 (exc_halt_s 4)))
 (let (($x5451 (or $x11568 (not (= ((_ extract 6 6) (bvadd (_ bv1 7) (concat (_ bv0 1) (sc_s 4)))) (_ bv0 1))))))
 (let (($x3979 (exc_halt_s 5)))
 (let (($x2658 (= $x3979 $x5451)))
 (let (($x8088 (forall ((w (_ BitVec 256)) )(let ((?x4867 (storage_s x_0 x_SLOAD_0 w_5 w_4 w_3 4 w)))
 (let ((?x6240 (storage_s x_0 x_SLOAD_0 w_5 w_4 w_3 5 w)))
 (= ?x6240 ?x4867))))
 ))
 (let (($x10252 (forall ((n (_ BitVec 6)) )(let ((?x4305 (sc_s 4)))
 (let (($x10950 (bvsle ?x4305 n)))
 (let ((?x7419 (stack_s x_0 x_SLOAD_0 w_5 w_4 w_3 4 n)))
 (let ((?x7374 (stack_s x_0 x_SLOAD_0 w_5 w_4 w_3 5 n)))
 (or (= ?x7374 ?x7419) $x10950))))))
 ))
 (let (($x866 (= ?x805 (bvadd (_ bv1 6) (sc_s 4)))))
 (let ((?x10041 (used_gas_s x_0 x_SLOAD_0 w_5 w_4 w_3 5)))
 (let (($x2711 (= $x11568 (or (exc_halt_s 3) (not (bvsle (_ bv0 6) (bvadd (_ bv61 6) (sc_s 3))))))))
 (let (($x1931 (forall ((w (_ BitVec 256)) )(let ((?x7173 (storage_s x_0 x_SLOAD_0 w_5 w_4 w_3 3 w)))
 (let ((?x4867 (storage_s x_0 x_SLOAD_0 w_5 w_4 w_3 4 w)))
 (= ?x4867 ?x7173))))
 ))
 (let (($x7300 (forall ((n (_ BitVec 6)) )(let ((?x3183 (stack_s x_0 x_SLOAD_0 w_5 w_4 w_3 3 n)))
 (let ((?x7419 (stack_s x_0 x_SLOAD_0 w_5 w_4 w_3 4 n)))
 (let ((?x275 (sc_s 3)))
 (let ((?x6049 (bvadd (_ bv61 6) ?x275)))
 (let (($x4478 (bvsle ?x6049 n)))
 (or $x4478 (= ?x7419 ?x3183))))))))
 ))
 (let ((?x275 (sc_s 3)))
 (let ((?x4305 (sc_s 4)))
 (let (($x1519 (= ?x4305 ?x275)))
 (let ((?x9666 (used_gas_s x_0 x_SLOAD_0 w_5 w_4 w_3 4)))
 (let (($x679 (= (stack_s x_0 x_SLOAD_0 w_5 w_4 w_3 4 (bvadd (_ bv62 6) ?x4305)) (stack_s x_0 x_SLOAD_0 w_5 w_4 w_3 3 (bvadd (_ bv62 6) ?x275)))))
 (let (($x8644 (= (stack_s x_0 x_SLOAD_0 w_5 w_4 w_3 4 (bvadd (_ bv61 6) ?x4305)) (stack_s x_0 x_SLOAD_0 w_5 w_4 w_3 3 (bvadd (_ bv63 6) ?x275)))))
 (let (($x3008 (= (stack_s x_0 x_SLOAD_0 w_5 w_4 w_3 4 (bvadd (_ bv63 6) ?x4305)) (stack_s x_0 x_SLOAD_0 w_5 w_4 w_3 3 (bvadd (_ bv61 6) ?x275)))))
 (let (($x631 (not (= ((_ extract 6 6) (bvadd (_ bv1 7) (concat (_ bv0 1) (sc_s 2)))) (_ bv0 1)))))
 (let (($x247 (exc_halt_s 2)))
 (let (($x292 (exc_halt_s 3)))
 (let (($x1195 (forall ((w (_ BitVec 256)) )(let ((?x5527 (storage_s x_0 x_SLOAD_0 w_5 w_4 w_3 2 w)))
 (let ((?x7173 (storage_s x_0 x_SLOAD_0 w_5 w_4 w_3 3 w)))
 (= ?x7173 ?x5527))))
 ))
 (let (($x1884 (forall ((n (_ BitVec 6)) )(let ((?x6731 (stack_s x_0 x_SLOAD_0 w_5 w_4 w_3 2 n)))
 (let ((?x3183 (stack_s x_0 x_SLOAD_0 w_5 w_4 w_3 3 n)))
 (or (bvsle (sc_s 2) n) (= ?x3183 ?x6731)))))
 ))
 (let (($x4995 (= ?x275 (bvadd (_ bv1 6) (sc_s 2)))))
 (let ((?x8443 (used_gas_s x_0 x_SLOAD_0 w_5 w_4 w_3 3)))
 (let (($x11639 (= $x247 (or (exc_halt_s 1) (not (bvsle (_ bv0 6) (bvadd (_ bv63 6) (sc_s 1))))))))
 (let (($x1270 (forall ((w (_ BitVec 256)) )(let ((?x3003 (storage_s x_0 x_SLOAD_0 w_5 w_4 w_3 1 w)))
 (let ((?x5527 (storage_s x_0 x_SLOAD_0 w_5 w_4 w_3 2 w)))
 (= ?x5527 ?x3003))))
 ))
 (let (($x1305 (forall ((n (_ BitVec 6)) )(let ((?x5889 (stack_s x_0 x_SLOAD_0 w_5 w_4 w_3 1 n)))
 (let ((?x6731 (stack_s x_0 x_SLOAD_0 w_5 w_4 w_3 2 n)))
 (let ((?x154 (sc_s 1)))
 (let ((?x3369 (bvadd (_ bv63 6) ?x154)))
 (let (($x950 (bvsle ?x3369 n)))
 (or $x950 (= ?x6731 ?x5889))))))))
 ))
 (let ((?x154 (sc_s 1)))
 (let ((?x218 (sc_s 2)))
 (let (($x9561 (= ?x218 ?x154)))
 (let ((?x7923 (used_gas_s x_0 x_SLOAD_0 w_5 w_4 w_3 2)))
 (let ((?x7915 (storage_s x_0 x_SLOAD_0 w_5 w_4 w_3 1 (stack_s x_0 x_SLOAD_0 w_5 w_4 w_3 1 (bvadd (_ bv63 6) ?x154)))))
 (let (($x5166 (= (stack_s x_0 x_SLOAD_0 w_5 w_4 w_3 2 (bvadd (_ bv63 6) ?x218)) ?x7915)))
 (let (($x189 (exc_halt_s 1)))
 (let (($x10209 (= $x189 (or $x57 (not (= ((_ extract 6 6) (bvadd (_ bv1 7) (concat (_ bv0 1) ?x72))) (_ bv0 1)))))))
 (let (($x8193 (forall ((w (_ BitVec 256)) )(let ((?x9755 (storage_s x_0 x_SLOAD_0 w_5 w_4 w_3 0 w)))
 (let ((?x3003 (storage_s x_0 x_SLOAD_0 w_5 w_4 w_3 1 w)))
 (= ?x3003 ?x9755))))
 ))
 (let (($x10464 (forall ((n (_ BitVec 6)) )(let ((?x6442 (stack_s x_0 x_SLOAD_0 w_5 w_4 w_3 0 n)))
 (let ((?x5889 (stack_s x_0 x_SLOAD_0 w_5 w_4 w_3 1 n)))
 (let ((?x72 (sc_s 0)))
 (let (($x8082 (bvsle ?x72 n)))
 (or $x8082 (= ?x5889 ?x6442)))))))
 ))
 (let (($x1360 (= ?x154 (bvadd (_ bv1 6) ?x72))))
 (let (($x8387 (forall ((w (_ BitVec 256)) )(let (($x10619 (= w (stack_s x_0 x_SLOAD_0 w_5 w_4 w_3 1 (bvadd (_ bv63 6) (sc_s 1))))))
 (let ((?x9755 (storage_s x_0 x_SLOAD_0 w_5 w_4 w_3 0 w)))
 (= ?x9755 (ite $x10619 x_SLOAD_0 (_ bv0 256))))))
 ))
 (let (($x7099 (= ?x6200 0)))
 (let (($x11555 (not $x57)))
 (let (($x1629 (= (stack_s x_0 x_SLOAD_0 w_5 w_4 w_3 0 (_ bv0 6)) x_0)))
 (let (($x8685 (= ?x72 (_ bv1 6))))
 (and $x8685 $x1629 $x11555 $x7099 $x8387 (= (stack_s x_0 x_SLOAD_0 w_5 w_4 w_3 1 ?x72) w_5) (= (used_gas_s x_0 x_SLOAD_0 w_5 w_4 w_3 1) (+ 3 ?x6200)) $x1360 $x10464 $x8193 $x10209 $x5166 (= ?x7923 (+ 200 (used_gas_s x_0 x_SLOAD_0 w_5 w_4 w_3 1))) $x9561 $x1305 $x1270 $x11639 (= (stack_s x_0 x_SLOAD_0 w_5 w_4 w_3 3 ?x218) w_4) (= ?x8443 (+ 3 ?x7923)) $x4995 $x1884 $x1195 (= $x292 (or $x247 $x631)) $x3008 $x8644 $x679 (= ?x9666 (+ 3 ?x8443)) $x1519 $x7300 $x1931 $x2711 (= (stack_s x_0 x_SLOAD_0 w_5 w_4 w_3 5 ?x4305) w_3) (= ?x10041 (+ 3 ?x9666)) $x866 $x10252 $x8088 $x2658 $x11270 $x5703 $x2479 $x4653 $x932 $x9328 $x4107 $x7463 (= (stack_t x_0 x_SLOAD_0 w_5 w_4 w_3 1 ?x63) w_3) (= (used_gas_t x_0 x_SLOAD_0 w_5 w_4 w_3 1) (+ 3 ?x10269)) $x11743 $x8775 $x2714 $x6221 (= (stack_t x_0 x_SLOAD_0 w_5 w_4 w_3 2 ?x11292) w_4) (= ?x1461 (+ 3 (used_gas_t x_0 x_SLOAD_0 w_5 w_4 w_3 1))) $x8931 $x7430 $x1219 (= $x2810 (or $x7802 $x11356)) $x7700 $x2725 $x9339 (= ?x8605 (+ 3 ?x1461)) $x10315 $x10259 $x1692 $x3631 (= (stack_t x_0 x_SLOAD_0 w_5 w_4 w_3 4 ?x5512) w_5) (= ?x6070 (+ 3 ?x8605)) $x11094 $x3025 $x6433 (= $x3723 (or $x2075 $x11122)) $x7456 $x11598 $x1123 $x5501 $x3236 $x8270 $x73 $x66 $x58 $x4298 $x326 (not (and $x929 $x5766 $x889 $x6707)))))))))))))))))))))))))))))))))))))))))))))))))))))))))))))))))))))))))))))))))))))))))))))))))))))))))))))))))
 )
(check-sat)
(get-proof)
